HUN,8,6,239
1,10,4,29,2,4,0,1,5,3,3,22
0,16,3,28,5,12,1,2,2,19,4,14
1,30,0,21,5,25,4,1,2,11,3,26
4,1,0,13,2,6,3,8,1,17,5,14
2,12,0,19,1,11,3,25,4,21,5,3
3,11,5,7,2,9,0,9,4,8,1,12
4,15,0,1,3,13,1,1,2,22,5,24
0,4,4,9,1,1,2,26,3,13,5,7
